WARNING: for repeatability, setting FPU to use double precision
============================[ Problem Statistics ]=============================
|                                                                             |
|  Number of variables:          8399                                         |
|  Number of clauses:          123774                                         |
|  Parse time:                   0.04 s                                       |
|  Eliminated clauses:           0.00 Mb                                      |
|  Simplification time:          0.03 s                                       |
|                                                                             |
============================[ Search Statistics ]==============================
| Conflicts |          ORIGINAL         |          LEARNT          | Progress |
|           |    Vars  Clauses Literals |    Limit  Clauses Lit/Cl |          |
===============================================================================
===============================================================================
restarts              : 1
conflicts             : 1              (15 /sec)
decisions             : 110            (0.00 % random) (1599 /sec)
propagations          : 8291           (120521 /sec)
conflict literals     : 11             (0.00 % deleted)
Memory used           : 28.00 MB
CPU time              : 0.068793 s

SATISFIABLE
